(set-info :smt-lib-version 2.6)
(set-logic QF_UFLRA)
(set-info :source |
MathSat group

|)
(set-info :category "random")
(set-info :status sat)
(declare-fun x0 () Real)
(declare-fun x1 () Real)
(declare-fun x2 () Real)
(declare-fun x3 () Real)
(declare-fun x4 () Real)
(declare-fun x5 () Real)
(declare-fun x6 () Real)
(declare-fun x7 () Real)
(declare-fun x8 () Real)
(declare-fun x9 () Real)
(declare-fun x10 () Real)
(declare-fun x11 () Real)
(declare-fun x12 () Real)
(declare-fun x13 () Real)
(declare-fun x14 () Real)
(declare-fun x15 () Real)
(declare-fun x16 () Real)
(declare-fun x17 () Real)
(declare-fun x18 () Real)
(declare-fun x19 () Real)
(declare-fun x20 () Real)
(declare-fun x21 () Real)
(declare-fun x22 () Real)
(declare-fun x23 () Real)
(declare-fun x24 () Real)
(declare-fun x25 () Real)
(declare-fun x26 () Real)
(declare-fun x27 () Real)
(declare-fun x28 () Real)
(declare-fun x29 () Real)
(declare-fun x30 () Real)
(declare-fun x31 () Real)
(declare-fun x32 () Real)
(declare-fun x33 () Real)
(declare-fun x34 () Real)
(declare-fun x35 () Real)
(declare-fun x36 () Real)
(declare-fun x37 () Real)
(declare-fun x38 () Real)
(declare-fun x39 () Real)
(declare-fun f0_1 (Real) Real)
(declare-fun f0_2 (Real Real) Real)
(declare-fun f0_3 (Real Real Real) Real)
(declare-fun f0_4 (Real Real Real Real) Real)
(declare-fun P0 () Bool)
(declare-fun P1 () Bool)
(declare-fun P2 () Bool)
(declare-fun P3 () Bool)
(declare-fun P4 () Bool)
(declare-fun P5 () Bool)
(declare-fun P6 () Bool)
(declare-fun P7 () Bool)
(declare-fun P8 () Bool)
(declare-fun P9 () Bool)
(declare-fun P10 () Bool)
(declare-fun P11 () Bool)
(declare-fun P12 () Bool)
(declare-fun P13 () Bool)
(declare-fun P14 () Bool)
(declare-fun P15 () Bool)
(declare-fun P16 () Bool)
(declare-fun P17 () Bool)
(declare-fun P18 () Bool)
(declare-fun P19 () Bool)
(declare-fun P20 () Bool)
(declare-fun P21 () Bool)
(declare-fun P22 () Bool)
(declare-fun P23 () Bool)
(declare-fun P24 () Bool)
(declare-fun P25 () Bool)
(declare-fun P26 () Bool)
(declare-fun P27 () Bool)
(declare-fun P28 () Bool)
(declare-fun P29 () Bool)
(declare-fun P30 () Bool)
(declare-fun P31 () Bool)
(declare-fun P32 () Bool)
(declare-fun P33 () Bool)
(declare-fun P34 () Bool)
(declare-fun P35 () Bool)
(declare-fun P36 () Bool)
(declare-fun P37 () Bool)
(declare-fun P38 () Bool)
(declare-fun P39 () Bool)
(assert (let ((?v_111 (* 32 x36)) (?v_31 (* 34 x8)) (?v_63 (< (- (+ (* 45 x31) (* 33 x29)) (* 54 x37)) 54)) (?v_36 (<= (- (- (* 38 x34) (* 55 x6)) (* 51 x7)) 6)) (?v_78 (distinct (+ (- (* 21 x18) (* 13 x12)) (* 5 x30)) 32)) (?v_28 (f0_1 x32))) (let ((?v_32 (distinct x34 ?v_28)) (?v_72 (distinct x36 (f0_2 x33 x12))) (?v_44 (distinct x6 x2)) (?v_55 (= (f0_2 x15 x34) (f0_2 x9 x20))) (?v_62 (= (f0_2 x36 x7) (f0_2 x1 x2))) (?v_94 (distinct x11 (f0_2 x31 x32))) (?v_19 (f0_1 x10))) (let ((?v_9 (= ?v_19 (f0_2 x8 x15))) (?v_22 (distinct x16 (f0_1 x19))) (?v_27 (f0_1 x38))) (let ((?v_37 (distinct ?v_27 (f0_1 x14))) (?v_186 (distinct x9 (f0_2 x31 x39))) (?v_25 (f0_1 x37))) (let ((?v_103 (distinct ?v_25 x13)) (?v_102 (f0_1 x29))) (let ((?v_108 (= ?v_102 (f0_1 x3))) (?v_132 (distinct (f0_1 x7) ?v_27)) (?v_64 (distinct x38 (f0_2 x23 x7))) (?v_125 (distinct (f0_2 x36 x23) (f0_1 x21))) (?v_10 (f0_1 x25))) (let ((?v_17 (distinct x15 ?v_10)) (?v_92 (= (f0_2 x36 x13) (f0_2 x36 x22))) (?v_38 (= ?v_25 (f0_1 x4))) (?v_26 (f0_1 x39))) (let ((?v_150 (distinct ?v_26 x1)) (?v_168 (distinct x21 (f0_2 x26 x33))) (?v_34 (distinct x38 (f0_1 x34))) (?v_65 (distinct (f0_2 x31 x1) x26)) (?v_134 (= x15 (f0_1 x20))) (?v_118 (= (f0_1 x22) (f0_2 x4 x13))) (?v_8 (distinct ?v_26 (f0_2 x6 x38))) (?v_179 (distinct ?v_28 ?v_10)) (?v_75 (= (f0_2 x27 x29) (f0_1 x24))) (?v_70 (distinct x34 (f0_2 x25 x23))) (?v_45 (distinct (f0_2 x39 x3) (f0_2 x34 x13))) (?v_137 (= (f0_2 x20 x39) ?v_25)) (?v_97 (distinct ?v_102 (f0_2 x14 x14))) (?v_24 (distinct x28 (f0_2 x24 x27))) (?v_57 (distinct ?v_19 x21)) (?v_88 (= x30 x12)) (?v_5 (f0_1 x30))) (let ((?v_105 (= ?v_5 (f0_1 x11))) (?v_106 (= (f0_1 x0) (f0_2 x25 x14))) (?v_169 (distinct ?v_5 x4)) (?v_30 (distinct (f0_1 x33) (f0_2 x38 x0))) (?v_42 (distinct (f0_2 x9 x2) (f0_2 x38 x14))) (?v_23 (= ?v_25 (f0_2 x4 x33))) (?v_123 (not P0)) (?v_0 (not P2)) (?v_177 (not P13)) (?v_206 (not ?v_134)) (?v_201 (not P1)) (?v_74 (not P39)) (?v_167 (not ?v_179)) (?v_33 (not P30)) (?v_16 (not P3))) (let ((?v_93 (not ?v_105)) (?v_191 (not ?v_23)) (?v_21 (not ?v_169)) (?v_109 (not P29)) (?v_90 (not ?v_17)) (?v_130 (not ?v_64)) (?v_51 (not P32)) (?v_49 (not ?v_132)) (?v_110 (not ?v_22)) (?v_53 (not P35)) (?v_121 (not P7)) (?v_143 (not P19)) (?v_145 (not P18)) (?v_203 (not ?v_9)) (?v_67 (not P25)) (?v_29 (not P9)) (?v_68 (not P36)) (?v_195 (not ?v_70)) (?v_99 (not ?v_24)) (?v_60 (not ?v_150)) (?v_39 (not ?v_32)) (?v_155 (not P15)) (?v_100 (not ?v_92)) (?v_71 (not ?v_168)) (?v_48 (not ?v_30)) (?v_77 (not P6)) (?v_199 (not P26))) (let ((?v_182 (or ?v_37 ?v_199)) (?v_47 (not ?v_97)) (?v_178 (not P10)) (?v_161 (not ?v_37)) (?v_115 (not P14)) (?v_144 (not ?v_88)) (?v_157 (not ?v_55)) (?v_171 (not ?v_63)) (?v_116 (not P28)) (?v_133 (not P17)) (?v_148 (not ?v_137)) (?v_79 (not ?v_125)) (?v_95 (not ?v_72)) (?v_80 (not ?v_75)) (?v_200 (not P34)) (?v_101 (not ?v_44)) (?v_158 (not P8)) (?v_152 (not P16)) (?v_104 (not P20)) (?v_122 (not ?v_62)) (?v_154 (not P22)) (?v_151 (not ?v_8)) (?v_138 (not P5)) (?v_193 (not ?v_106)) (?v_208 (not P27)) (?v_142 (not P23)) (?v_185 (not P21)) (?v_129 (not ?v_36)) (?v_128 (not P12)) (?v_162 (not ?v_42)) (?v_163 (not P24)) (?v_174 (not ?v_78)) (?v_149 (not ?v_34)) (?v_192 (not ?v_38)) (?v_139 (not P33)) (?v_166 (not ?v_118)) (?v_173 (not P38)) (?v_165 (not P31)) (?v_184 (not ?v_94)) (?v_189 (not P4)) (?v_172 (not ?v_108)) (?v_210 (not ?v_65)) (?v_198 (not ?v_57)) (?v_202 (not P11)) (?v_205 (not ?v_45)) (?v_188 (not ?v_186)) (?v_204 (not P37)) (?v_197 (not ?v_103)) (?v_209 (or ?v_118 ?v_203)) (?v_40 (< (- (* 17 x38) (* 46 x1)) 44))) (let ((?v_126 (not ?v_40)) (?v_52 (<= (+ (* 51 x22) (* 10 x39) (* 7 x29)) 46)) (?v_35 (<= (- (- 0 (* 47 x28)) (* 6 x38)) 23))) (let ((?v_89 (not ?v_35)) (?v_170 (not ?v_52)) (?v_14 (<= (- (- (* (- 12) x26) (* 32 x8)) (* 23 x7)) (- 55)))) (let ((?v_46 (not ?v_14)) (?v_1 (< (+ (- (* (- 18) x15) (* 17 x3)) (* 8 x14)) (- 10))) (?v_131 (< (- (+ (* (- 57) x24) (* 10 x29)) 0) (- 29)))) (let ((?v_73 (not ?v_131)) (?v_13 (<= (- (+ (* (- 26) x34) (* 39 x18)) (* 6 x18)) (- 30)))) (let ((?v_176 (not ?v_13)) (?v_2 (= (+ (* 52 x13) (* 30 x16) (* 35 x35)) (- 25))) (?v_3 (< (- (+ (* 33 x21) (* 55 x31)) (* 13 x27)) (- 54))) (?v_7 (distinct (+ (* 37 x0) (* 50 x20) (* 5 x18)) (- 49))) (?v_56 (= (+ (- (* 19 x29) (* 36 x39)) (* 44 x32)) (- 48))) (?v_20 (< (- (+ (* (- 39) x24) (* 38 x11)) (* 15 x28)) 37)) (?v_4 (<= (+ (* (- 22) x5) (* 25 x7)) (- 13)))) (let ((?v_59 (not ?v_2)) (?v_11 (not ?v_3)) (?v_119 (<= (- (+ (* (- 56) x29) (* 39 x27)) (* 56 x1)) (- 44)))) (let ((?v_141 (not ?v_119)) (?v_12 (not ?v_4)) (?v_6 (distinct (+ (* (- 8) x9) (* 14 x33) (* 20 x6)) 3))) (let ((?v_18 (not ?v_6)) (?v_15 (< (+ (- (* (- 23) x13) (* 33 x4)) (* 2 x13)) 30))) (let ((?v_87 (not ?v_15)) (?v_156 (<= (- (- (* (- 40) x5) (* 25 x20)) (* 19 x10)) 33))) (let ((?v_187 (not ?v_156)) (?v_86 (= (- (- (* (- 27) x2) (* 44 x9)) (* 42 x14)) (- 56))) (?v_98 (< (- (+ (* (- 47) x16) (* 20 x15)) (* 15 x26)) (- 22)))) (let ((?v_91 (not ?v_98)) (?v_41 (not ?v_20)) (?v_50 (< (+ (- (* (- 4) x32) (* 11 x7)) (* 5 x16)) (- 4))) (?v_61 (<= (- (+ (* (- 22) x35) ?v_111) x33) 14))) (let ((?v_175 (not ?v_61)) (?v_69 (not ?v_7)) (?v_54 (distinct (+ (* (- 30) x14) (* 29 x36) (* 47 x24)) (- 17)))) (let ((?v_58 (not ?v_54)) (?v_112 (< (- (+ (* (- 8) x34) (* 3 x25)) (* 34 x34)) (- 12))) (?v_181 (distinct (+ (- (* 43 x35) (* 20 x8)) ?v_31) (- 33)))) (let ((?v_43 (not ?v_181)) (?v_136 (<= (+ (- (* (- 5) x14) (* 20 x35)) (* 19 x33)) 0)) (?v_81 (< (+ (* (- 19) x20) (* 49 x21) (* 38 x24)) 18)) (?v_153 (<= (- (+ (* 38 x26) ?v_31) (* 20 x12)) (- 13)))) (let ((?v_83 (not ?v_153)) (?v_82 (<= (- (- (* (- 40) x31) (* 48 x28)) (* 53 x23)) (- 46))) (?v_84 (< (+ (* (- 49) x10) (* 18 x30) (* 17 x23)) 11)) (?v_159 (<= (+ (* (- 56) x2) (* 11 x6) (* 36 x22)) (- 36)))) (let ((?v_127 (not ?v_159)) (?v_76 (<= (+ (- (* (- 13) x17) (* 28 x22)) (* 10 x18)) 36)) (?v_66 (<= (+ (* 23 x38) (* 5 x27) (* 29 x23)) (- 51)))) (let ((?v_107 (not ?v_76)) (?v_85 (not ?v_1)) (?v_96 (not ?v_81)) (?v_160 (<= (- (+ (* (- 1) x24) (* 22 x10)) (* 38 x12)) (- 47)))) (let ((?v_164 (not ?v_160)) (?v_140 (not ?v_66)) (?v_124 (not ?v_82)) (?v_135 (not ?v_50)) (?v_120 (<= (+ (- (* (- 41) x11) (* 5 x13)) (* 9 x17)) (- 29)))) (let ((?v_113 (not ?v_120)) (?v_114 (distinct (- (- (* 19 x2) ?v_111) (* 48 x11)) (- 17))) (?v_117 (not ?v_112)) (?v_190 (not ?v_84)) (?v_147 (< (+ (* (- 19) x10) (* 41 x18) (* 37 x6)) (- 8))) (?v_146 (not ?v_86)) (?v_194 (<= (- (- (* (- 49) x37) (* 39 x23)) (* 49 x19)) (- 34)))) (let ((?v_183 (not ?v_194)) (?v_180 (not ?v_56)) (?v_196 (not ?v_114)) (?v_207 (not ?v_136))) (and (and (and (and (and (and (and (and (and (and (and (and (and (and (and (and (and (and (and (and (and (and (and (and (and (and (and (and (and (and (and (and (and (and (and (and (and (and (and (and (and (and (and (and (and (and (and (and (and (and (and (and (and (and (and (and (and (and (and (and (and (and (and (and (and (and (and (and (and (and (and (and (and (and (and (and (and (and (and (and (and (and (and (and (and (and (and (and (and (and (and (and (and (and (and (and (and (and (and (and (and (and (and (and (and (and (and (and (and (and (and (and (and (and (and (and (and (and (and (and (and (and (and (and (and (and (and (and (and (and (and (and (and (and (and (and (and (and (and (and (and (and (and (and (and (and (and (and (and (and (and (and (and (and (and (and (and (and (and (and (and (and (and (and (and (and (and (and (and (and (and (and (and (and (and (and (and (and (and (and (and (and (and (and (and (and (and (and (and (and (and (and (and (and (and (and (and (and (and (and (and (and (and (and (and (and (and (and (and (and (and (and (and (and (and (and (and (and (and (and (and (and (and (and (and (and (and (and (and (and (and (and (and (and (and (and (and (and (and (and (and (and (and (and (and (and (and (and (and (and (and (and (and (and (and (and (and (and (and (and (and (and (and (and (and (and (and (and (and (and (and (and (and (and (and (and (and (and (and (and (and (and (and (and (and (and (and (and (and (and (and (and (and (and (and (and (and (and (and (and (and (and (and (and (and (and (and (and (and (and (and (and (and (and (and (and (and (and (and (and (and (and (and (and (and (and (and (and (and (and (and (and (and (and (and (and (and (and (and (and (and (and (and (and (and (and (and (and (and (and (and (and (and (and (and (and (and (and (and (and (and (and (and (and (and (and (and (and (and (and (and (and (and (and (and (and (and (and (and (and (and (and (and (and (and (and (and (and (and (and (and (and (and (and (and (and (and (and (and (and (and (and (and (and (and (and (and (and (and (and (and (and (and (and (and (and (and (and (and (and (and (and (and (and (and (and (and (and (and (and (and (and (and (and (and (and (and (and (and (and (and (and (and (and (and (and (and (and (and (and (and (and (and (and (and (and (and (and (and (and (and (and (and (and (and (and (and (and (and (and (and (and (and (and (and (and (and (and (and (or (or P23 P26) ?v_46) (or (or ?v_1 ?v_73) ?v_176)) (or (or ?v_2 ?v_3) ?v_123)) (or (or ?v_45 ?v_7) ?v_0)) (or (or ?v_30 ?v_177) ?v_56)) (or (or ?v_206 ?v_201) ?v_74)) (or (or ?v_167 P37) ?v_24)) (or (or ?v_8 ?v_20) ?v_33)) (or (or ?v_0 ?v_16) ?v_1)) (or (or ?v_4 P16) ?v_59)) (or (or ?v_93 ?v_11) ?v_191)) (or (or P28 P36) ?v_141)) (or (or ?v_12 ?v_2) P0)) (or (or ?v_65 ?v_55) ?v_18)) (or (or ?v_21 P2) ?v_6)) (or (or ?v_109 ?v_7) ?v_9)) (or (or ?v_8 ?v_9) ?v_126)) (or (or ?v_90 ?v_11) ?v_12)) (or (or ?v_87 P10) ?v_13)) (or (or ?v_14 ?v_52) ?v_130)) (or (or P25 ?v_9) ?v_187)) (or (or ?v_63 ?v_15) ?v_51)) (or (or ?v_49 ?v_16) ?v_110)) (or (or ?v_17 P28) ?v_53)) (or (or ?v_35 P20) ?v_18)) (or (or ?v_1 ?v_44) P30)) (or (or ?v_42 ?v_121) P21)) (or (or ?v_143 ?v_62) ?v_86)) (or (or ?v_145 ?v_7) ?v_57)) (or (or ?v_203 ?v_91) ?v_67)) (or (or P38 ?v_41) ?v_106)) (or (or ?v_29 ?v_75) ?v_36)) (or (or P6 ?v_68) ?v_50)) (or (or ?v_175 ?v_8) ?v_69)) (or (or P19 ?v_21) ?v_195)) (or (or ?v_22 ?v_23) ?v_99)) (or (or ?v_38 ?v_0) ?v_60)) (or (or ?v_34 P4) ?v_58)) (or (or ?v_37 P24) P2)) (or (or ?v_39 P33) ?v_24)) (or (or P1 ?v_155) ?v_112)) (or (or P18 ?v_29) P25)) (or (or ?v_43 ?v_100) ?v_71)) (or (or ?v_136 ?v_48) ?v_77)) (or (or P30 ?v_81) ?v_83)) (or (or ?v_32 ?v_33) P14)) (or (or ?v_34 ?v_89) ?v_20)) (or (or ?v_82 P37) ?v_36)) (or ?v_182 ?v_38)) (or (or ?v_13 ?v_35) P11)) (or (or ?v_39 P28) ?v_40)) (or (or P2 ?v_41) ?v_94)) (or (or ?v_42 ?v_84) ?v_34)) (or (or ?v_43 ?v_44) ?v_47)) (or (or ?v_45 P7) ?v_46)) (or (or P37 ?v_47) ?v_48)) (or (or ?v_3 P9) ?v_178)) (or (or ?v_49 ?v_50) ?v_51)) (or (or P36 ?v_170) ?v_161)) (or (or P10 ?v_115) ?v_29)) (or (or P21 ?v_53) P0)) (or (or ?v_54 ?v_23) ?v_127)) (or (or ?v_55 ?v_20) ?v_144)) (or (or ?v_16 ?v_56) ?v_29)) (or (or ?v_76 ?v_57) ?v_17)) (or (or ?v_157 ?v_58) P33)) (or (or ?v_59 ?v_60) ?v_78)) (or (or P37 ?v_61) ?v_42)) (or (or ?v_62 ?v_171) P12)) (or (or ?v_66 ?v_116) ?v_133)) (or (or ?v_64 ?v_13) ?v_54)) (or (or ?v_65 ?v_66) ?v_64)) (or (or ?v_67 ?v_49) ?v_58)) (or (or ?v_59 ?v_68) ?v_72)) (or (or ?v_148 ?v_69) ?v_79)) (or (or ?v_64 ?v_22) ?v_6)) (or (or ?v_70 ?v_71) ?v_95)) (or (or ?v_73 ?v_74) ?v_56)) (or (or ?v_80 P34) P13)) (or (or ?v_103 ?v_107) ?v_77)) (or (or ?v_78 ?v_79) ?v_80)) (or (or P11 ?v_85) ?v_200)) (or (or P13 ?v_3) ?v_96)) (or (or ?v_82 ?v_164) ?v_83)) (or (or ?v_84 ?v_85) ?v_86)) (or (or ?v_87 ?v_34) ?v_33)) (or (or ?v_88 ?v_36) ?v_101)) (or (or ?v_89 ?v_90) ?v_140)) (or (or ?v_91 ?v_66) ?v_124)) (or (or ?v_92 ?v_93) ?v_94)) (or (or ?v_95 ?v_94) ?v_76)) (or (or ?v_54 ?v_96) ?v_97)) (or (or ?v_98 ?v_66) ?v_0)) (or (or P33 P21) ?v_99)) (or (or ?v_100 ?v_68) P33)) (or (or ?v_101 P11) ?v_158)) (or (or P33 ?v_152) ?v_104)) (or (or ?v_186 ?v_108) P33)) (or (or ?v_43 P4) ?v_135)) (or (or ?v_69 ?v_18) P16)) (or (or ?v_12 ?v_103) ?v_104)) (or (or ?v_82 ?v_92) ?v_105)) (or (or ?v_106 ?v_118) P29)) (or (or ?v_107 ?v_46) ?v_108)) (or (or P13 ?v_109) ?v_84)) (or (or ?v_110 ?v_82) ?v_113)) (or (or ?v_103 P26) ?v_114)) (or (or P1 P38) ?v_122)) (or (or ?v_89 ?v_87) ?v_96)) (or (or ?v_117 ?v_154) ?v_113)) (or (or ?v_79 ?v_114) ?v_16)) (or (or ?v_11 ?v_115) ?v_151)) (or (or ?v_116 ?v_117) ?v_138)) (or (or ?v_193 ?v_190) ?v_104)) (or (or ?v_118 P14) ?v_65)) (or (or ?v_14 P17) ?v_104)) (or (or ?v_119 P29) ?v_79)) (or (or ?v_80 ?v_120) ?v_208)) (or (or ?v_105 ?v_49) ?v_77)) (or (or ?v_9 ?v_121) ?v_142)) (or (or ?v_147 ?v_85) ?v_92)) (or (or ?v_97 ?v_122) P0)) (or (or ?v_185 ?v_129) P16)) (or (or ?v_146 ?v_107) ?v_123)) (or (or ?v_128 ?v_124) P32)) (or (or ?v_125 ?v_162) ?v_126)) (or (or ?v_163 ?v_113) ?v_23)) (or (or ?v_89 ?v_174) ?v_127)) (or (or ?v_128 ?v_78) ?v_149)) (or (or ?v_129 ?v_24) ?v_22)) (or (or ?v_192 ?v_113) P5)) (or (or ?v_98 ?v_139) ?v_130)) (or (or P1 P31) ?v_60)) (or (or ?v_166 ?v_131) ?v_9)) (or (or ?v_76 ?v_0) ?v_118)) (or (or ?v_96 P26) P27)) (or (or ?v_173 ?v_132) ?v_36)) (or (or ?v_103 P5) ?v_75)) (or (or ?v_132 ?v_54) ?v_91)) (or (or P31 ?v_60) ?v_37)) (or (or ?v_133 ?v_134) ?v_53)) (or (or ?v_135 ?v_75) P4)) (or (or ?v_89 ?v_114) ?v_39)) (or (or ?v_43 ?v_136) ?v_55)) (or (or ?v_137 ?v_138) ?v_126)) (or (or ?v_139 ?v_124) ?v_140)) (or (or ?v_104 ?v_78) ?v_92)) (or (or ?v_107 ?v_141) ?v_69)) (or (or ?v_133 ?v_142) ?v_143)) (or (or ?v_90 ?v_107) P38)) (or (or ?v_142 ?v_70) ?v_81)) (or (or ?v_144 ?v_86) ?v_92)) (or (or ?v_16 ?v_113) ?v_64)) (or (or ?v_108 P4) ?v_100)) (or (or ?v_145 ?v_108) ?v_146)) (or (or ?v_92 ?v_20) ?v_110)) (or (or ?v_114 P33) ?v_95)) (or (or ?v_123 ?v_147) P7)) (or (or ?v_113 ?v_142) ?v_148)) (or (or ?v_57 ?v_149) ?v_132)) (or (or ?v_150 ?v_151) ?v_4)) (or (or ?v_75 ?v_148) ?v_112)) (or (or ?v_89 P38) ?v_82)) (or (or ?v_140 ?v_23) ?v_152)) (or (or P25 P29) P10)) (or (or ?v_57 ?v_146) P15)) (or (or P24 P16) P35)) (or (or ?v_84 ?v_60) ?v_32)) (or (or P36 P39) ?v_117)) (or (or ?v_59 ?v_62) ?v_91)) (or (or ?v_33 ?v_122) ?v_98)) (or (or ?v_134 ?v_82) ?v_72)) (or (or ?v_0 ?v_153) ?v_14)) (or (or ?v_154 ?v_63) ?v_4)) (or (or ?v_155 ?v_90) ?v_146)) (or (or ?v_101 ?v_141) ?v_34)) (or (or ?v_93 ?v_156) ?v_157)) (or (or ?v_94 ?v_136) ?v_83)) (or (or ?v_125 ?v_92) ?v_158)) (or (or P28 ?v_1) ?v_52)) (or (or P25 ?v_159) ?v_68)) (or (or P27 ?v_17) ?v_33)) (or (or P21 P9) ?v_73)) (or (or ?v_160 P27) ?v_134)) (or (or ?v_97 ?v_33) ?v_74)) (or (or ?v_165 ?v_134) P36)) (or (or ?v_82 P14) ?v_16)) (or (or ?v_110 ?v_127) ?v_12)) (or (or ?v_158 ?v_161) ?v_162)) (or (or ?v_184 ?v_143) (not ?v_147))) (or (or ?v_189 ?v_112) P14)) (or (or ?v_131 P10) ?v_122)) (or (or ?v_83 ?v_79) ?v_172)) (or (or ?v_210 ?v_163) ?v_151)) (or (or ?v_145 ?v_60) P39)) (or (or P17 ?v_71) P9)) (or (or ?v_44 ?v_57) ?v_116)) (or (or ?v_76 ?v_110) ?v_63)) (or (or ?v_146 ?v_164) ?v_17)) (or (or P11 ?v_8) ?v_16)) (or (or ?v_35 ?v_140) P16)) (or (or ?v_165 ?v_34) ?v_91)) (or (or ?v_87 ?v_53) ?v_134)) (or (or ?v_129 P24) ?v_49)) (or (or ?v_166 P29) P20)) (or (or ?v_128 P39) ?v_159)) (or (or ?v_52 P22) ?v_6)) (or (or ?v_43 ?v_88) ?v_96)) (or (or ?v_146 ?v_167) ?v_168)) (or (or ?v_169 ?v_65) ?v_166)) (or (or ?v_117 P39) ?v_29)) (or (or ?v_1 ?v_183) ?v_170)) (or (or ?v_171 ?v_128) P27)) (or (or P29 ?v_172) ?v_162)) (or (or ?v_173 ?v_33) ?v_169)) (or (or ?v_100 ?v_9) P33)) (or (or ?v_117 ?v_165) ?v_105)) (or (or ?v_63 ?v_36) ?v_174)) (or (or ?v_54 ?v_90) P14)) (or (or ?v_46 ?v_55) P6)) (or (or ?v_149 ?v_9) ?v_159)) (or (or ?v_64 ?v_117) ?v_113)) (or (or P20 ?v_4) ?v_175)) (or (or ?v_176 ?v_143) ?v_140)) (or (or ?v_198 ?v_177) ?v_121)) (or (or ?v_12 ?v_1) ?v_23)) (or (or P9 ?v_95) ?v_202)) (or (or ?v_56 ?v_129) P18)) (or (or ?v_170 ?v_48) ?v_135)) (or (or ?v_37 ?v_178) ?v_30)) (or (or ?v_154 P8) ?v_178)) (or (or ?v_179 P24) ?v_21)) (or (or ?v_37 ?v_180) ?v_54)) (or (or ?v_180 ?v_101) ?v_181)) (or (or P24 ?v_66) ?v_79)) (or (or ?v_83 ?v_139) ?v_18)) (or (or ?v_21 ?v_147) ?v_105)) (or (or ?v_71 ?v_170) P30)) (or ?v_182 ?v_61)) (or (or P34 ?v_180) ?v_11)) (or (or ?v_50 ?v_205) ?v_119)) (or (or P29 ?v_77) ?v_183)) (or (or ?v_157 ?v_144) P7)) (or (or ?v_43 ?v_154) P18)) (or (or ?v_47 ?v_69) ?v_118)) (or (or ?v_184 ?v_196) ?v_81)) (or (or ?v_67 ?v_61) ?v_91)) (or (or ?v_66 ?v_177) P4)) (or (or ?v_185 ?v_133) ?v_17)) (or (or P4 ?v_147) ?v_153)) (or (or P19 ?v_188) ?v_120)) (or (or ?v_187 ?v_69) ?v_188)) (or (or ?v_150 ?v_179) ?v_138)) (or (or ?v_189 ?v_113) ?v_180)) (or (or ?v_190 ?v_191) ?v_56)) (or (or P20 ?v_66) ?v_65)) (or (or P24 P6) ?v_69)) (or (or ?v_162 ?v_82) ?v_50)) (or (or ?v_34 ?v_141) ?v_154)) (or (or ?v_204 ?v_197) ?v_185)) (or (or ?v_85 P37) ?v_11)) (or (or ?v_207 P2) ?v_62)) (or (or ?v_34 ?v_192) ?v_193)) (or (or P1 ?v_179) ?v_85)) (or (or ?v_181 ?v_160) P12)) (or (or ?v_63 ?v_104) ?v_146)) (or (or ?v_71 ?v_194) ?v_108)) (or (or P0 ?v_88) ?v_49)) (or (or P38 ?v_74) P7)) (or (or ?v_117 ?v_24) ?v_147)) (or (or ?v_173 ?v_176) ?v_107)) (or (or ?v_195 ?v_96) ?v_20)) (or (or ?v_134 P28) ?v_123)) (or (or ?v_132 P26) ?v_196)) (or (or ?v_6 ?v_0) ?v_117)) (or (or ?v_197 ?v_34) ?v_128)) (or (or ?v_189 ?v_93) ?v_108)) (or (or ?v_79 ?v_164) P23)) (or (or ?v_136 ?v_122) P10)) (or (or ?v_13 ?v_77) ?v_132)) (or (or ?v_99 ?v_198) ?v_1)) (or (or ?v_114 ?v_82) ?v_126)) (or (or ?v_81 ?v_173) P5)) (or (or ?v_73 ?v_129) ?v_78)) (or (or ?v_134 ?v_199) ?v_184)) (or (or ?v_39 ?v_199) ?v_179)) (or (or ?v_44 ?v_137) ?v_185)) (or (or P26 P22) ?v_200)) (or (or ?v_161 ?v_162) ?v_177)) (or (or ?v_125 P29) ?v_161)) (or (or ?v_21 ?v_114) ?v_162)) (or (or ?v_45 ?v_196) ?v_136)) (or (or ?v_201 ?v_194) ?v_122)) (or (or ?v_104 ?v_150) P15)) (or (or ?v_22 ?v_44) ?v_0)) (or (or ?v_104 ?v_29) ?v_92)) (or (or ?v_181 ?v_128) ?v_158)) (or (or P21 P30) ?v_56)) (or (or ?v_101 ?v_202) ?v_153)) (or (or ?v_45 ?v_203) ?v_18)) (or (or ?v_135 P7) P4)) (or (or ?v_166 ?v_85) ?v_66)) (or (or ?v_188 ?v_106) ?v_43)) (or (or ?v_44 ?v_145) ?v_185)) (or (or ?v_40 ?v_62) ?v_127)) (or (or ?v_6 ?v_51) ?v_163)) (or (or ?v_30 ?v_193) ?v_85)) (or (or ?v_204 ?v_196) ?v_103)) (or (or P16 ?v_8) ?v_52)) (or (or ?v_132 ?v_200) P16)) (or (or ?v_151 P8) ?v_187)) (or (or ?v_3 ?v_175) P13)) (or (or ?v_176 ?v_70) ?v_205)) (or (or ?v_17 ?v_66) ?v_206)) (or (or P17 ?v_36) P11)) (or (or ?v_37 ?v_12) ?v_119)) (or (or ?v_46 ?v_195) P3)) (or (or ?v_12 P21) ?v_148)) (or (or ?v_115 ?v_0) ?v_152)) (or (or ?v_173 ?v_126) ?v_170)) (or (or ?v_0 ?v_79) ?v_167)) (or (or P16 ?v_116) ?v_199)) (or (or P33 P39) ?v_192)) (or (or ?v_33 ?v_7) ?v_207)) (or (or ?v_46 ?v_128) ?v_59)) (or (or P25 ?v_145) ?v_95)) (or (or ?v_149 ?v_42) P8)) (or (or ?v_191 P25) ?v_62)) (or (or P34 ?v_85) ?v_43)) (or (or ?v_173 ?v_174) ?v_186)) (or (or ?v_83 ?v_62) ?v_177)) (or (or ?v_75 ?v_59) ?v_74)) (or (or ?v_150 P17) ?v_9)) (or (or ?v_73 ?v_175) ?v_154)) (or (or ?v_161 ?v_200) ?v_60)) (or (or ?v_107 ?v_66) ?v_157)) (or (or ?v_205 ?v_153) ?v_53)) (or (or ?v_61 ?v_17) ?v_121)) (or (or ?v_40 P34) ?v_14)) (or (or P3 P16) P0)) (or (or ?v_43 ?v_56) P2)) (or (or ?v_168 ?v_117) ?v_4)) (or (or ?v_44 ?v_198) ?v_208)) (or (or P26 P2) ?v_105)) (or ?v_209 ?v_201)) (or (or P26 ?v_126) ?v_195)) (or (or ?v_18 ?v_197) ?v_130)) (or (or ?v_106 ?v_128) ?v_40)) (or (or ?v_21 ?v_161) ?v_151)) (or (or ?v_62 ?v_107) ?v_59)) (or (or ?v_185 ?v_47) P38)) (or (or ?v_69 P37) P27)) (or (or ?v_181 ?v_175) ?v_106)) (or (or ?v_203 ?v_146) ?v_47)) (or (or ?v_171 ?v_135) P3)) (or (or ?v_30 ?v_197) ?v_105)) (or (or ?v_154 ?v_62) ?v_130)) (or (or ?v_195 ?v_143) ?v_190)) (or (or ?v_176 ?v_181) ?v_199)) (or (or ?v_22 P27) ?v_98)) (or (or ?v_8 P33) ?v_144)) (or (or ?v_37 ?v_23) ?v_39)) (or (or ?v_206 ?v_172) ?v_144)) (or (or ?v_144 P11) ?v_205)) (or (or ?v_203 ?v_29) ?v_73)) (or (or ?v_98 ?v_147) ?v_181)) (or (or ?v_87 ?v_47) ?v_164)) (or (or ?v_113 ?v_163) ?v_9)) (or (or ?v_39 ?v_166) ?v_45)) (or (or ?v_67 ?v_201) P39)) (or (or ?v_35 ?v_101) ?v_181)) (or (or ?v_66 ?v_72) ?v_118)) (or (or ?v_104 ?v_186) ?v_193)) (or (or P36 ?v_153) ?v_64)) (or (or ?v_2 ?v_87) ?v_135)) (or (or P12 ?v_83) P19)) (or (or ?v_204 P8) ?v_72)) (or (or ?v_1 ?v_65) ?v_80)) (or (or ?v_72 ?v_117) ?v_172)) (or (or ?v_154 ?v_53) ?v_16)) (or (or ?v_8 ?v_172) P26)) (or (or ?v_20 P27) ?v_132)) (or (or ?v_43 P7) P26)) (or (or ?v_12 ?v_196) ?v_152)) (or (or ?v_85 ?v_62) ?v_140)) (or (or ?v_129 ?v_105) ?v_86)) (or (or ?v_68 P29) ?v_126)) (or (or ?v_76 P31) ?v_173)) (or (or ?v_184 ?v_78) ?v_172)) (or (or ?v_3 ?v_160) ?v_203)) (or (or ?v_93 ?v_101) P38)) (or (or ?v_61 ?v_78) ?v_96)) (or (or ?v_147 P25) ?v_103)) (or (or ?v_181 ?v_70) ?v_153)) (or (or P22 ?v_78) ?v_14)) (or (or ?v_130 ?v_86) ?v_173)) (or (or ?v_77 ?v_34) ?v_124)) (or (or ?v_208 ?v_141) ?v_46)) (or (or ?v_183 ?v_85) ?v_166)) (or (or ?v_14 ?v_93) ?v_184)) (or (or ?v_15 ?v_4) ?v_164)) (or (or ?v_106 ?v_188) ?v_49)) (or (or ?v_175 ?v_95) ?v_190)) (or (or ?v_1 ?v_90) ?v_62)) (or (or P4 ?v_29) ?v_86)) (or (or ?v_180 ?v_29) ?v_107)) (or (or ?v_21 ?v_142) ?v_59)) (or (or ?v_0 ?v_165) ?v_95)) (or (or ?v_39 ?v_39) ?v_112)) (or ?v_209 ?v_149)) (or (or ?v_42 ?v_127) ?v_0)) (or (or ?v_46 ?v_95) ?v_119)) (or (or ?v_88 ?v_37) ?v_171)) (or (or P24 ?v_168) ?v_161)) (or (or ?v_92 ?v_7) ?v_63)) (or (or ?v_153 ?v_137) P34)) (or (or ?v_54 ?v_87) ?v_13)) (or (or ?v_93 ?v_8) P0)) (or (or ?v_110 P11) ?v_107)) (or (or P26 ?v_42) ?v_193)) (or (or ?v_143 ?v_66) ?v_170)) (or (or ?v_82 ?v_103) ?v_195)) (or (or ?v_126 ?v_63) P31)) (or (or ?v_39 ?v_152) ?v_174)) (or (or ?v_206 ?v_85) ?v_159)) (or (or ?v_9 P5) P35)) (or (or ?v_154 ?v_93) ?v_22)) (or (or ?v_206 P10) ?v_66)) (or (or ?v_112 ?v_4) ?v_98)) (or (or ?v_48 ?v_210) P27)) (or (or ?v_206 ?v_157) ?v_2)) (or (or ?v_36 ?v_69) ?v_187)) (or (or ?v_126 ?v_153) ?v_46)) (or (or ?v_57 P1) ?v_186)) (or (or P12 ?v_171) ?v_35)) (or (or ?v_189 ?v_116) ?v_206)) (or (or ?v_48 ?v_179) ?v_210)) (or (or ?v_142 P25) ?v_140)) (or (or ?v_155 ?v_196) ?v_198)) (or (or ?v_114 ?v_171) ?v_143)) (or (or ?v_82 ?v_57) ?v_79)) (or (or P10 ?v_33) ?v_141)) (or (or ?v_173 ?v_65) ?v_101)) (or (or ?v_44 ?v_205) ?v_4)) (or (or ?v_100 ?v_32) P25)) (or (or ?v_100 ?v_89) ?v_29)) (or (or P6 ?v_78) ?v_41)) (or (or ?v_30 ?v_57) ?v_175)) (or (or P22 ?v_131) ?v_92)) (or (or ?v_37 ?v_193) ?v_118)) (or (or P33 ?v_109) ?v_185)) (or (or ?v_52 ?v_147) ?v_137)) (or (or ?v_101 P18) ?v_48)) (or (or ?v_101 ?v_139) ?v_155)) (or (or P13 ?v_136) ?v_159)) (or (or ?v_79 P11) P38)) (or (or ?v_143 ?v_18) ?v_155)) (or (or ?v_24 P18) ?v_121)) (or (or ?v_134 ?v_127) P2)) (or (or ?v_3 P39) ?v_210)) (or (or ?v_24 ?v_48) ?v_18)) (or (or P27 ?v_40) P37)) (or (or ?v_104 ?v_169) ?v_173)) (or (or ?v_32 ?v_108) ?v_71)) (or (or ?v_112 ?v_50) ?v_58)) (or (or P31 P1) ?v_168)) (or (or ?v_132 ?v_198) ?v_18)) (or (or ?v_141 ?v_70) ?v_72)) (or (or P19 ?v_116) ?v_32)) (or (or ?v_179 ?v_141) ?v_162)) (or (or ?v_55 ?v_90) ?v_92)) (or (or ?v_16 ?v_168) ?v_49)) (or (or ?v_92 ?v_168) ?v_144)) (or (or ?v_110 ?v_44) ?v_30)) (or (or ?v_191 ?v_98) ?v_138)) (or (or ?v_60 P9) ?v_133)) (or (or ?v_172 P32) ?v_103)) (or (or ?v_187 P13) ?v_202)) (or (or P37 ?v_202) ?v_191)) (or (or ?v_176 ?v_85) ?v_139))))))))))))))))))))))))))))))))))
(check-sat)
(exit)
